INPUT_PARAMETERS
suffix               Si-dimer-1.82
stru_file            STRU-Si-dimer-1.82
kpoint_file          KPT-Si-dimer-1.82
wannier_card         INPUTw
pseudo_dir           /root/abacus-develop/pseudopotentials/sg15_oncv_upf_2020-02-06/1.0
calculation          scf
basis_type           pw
ecutwfc              100
ks_solver            dav
nbands               8
scf_thr              1.0e-7
scf_nmax             9000
ntype                1
nspin                1
lmaxmax              2
bessel_nao_rcut      6 7
smearing_method      gauss
smearing_sigma       0.01
mixing_type          broyden
mixing_beta          0.8
mixing_ndim          8
mixing_gg0           0
gamma_only           1
printe               1