ATOMIC_SPECIES
Si 1.000000 Si_ONCV_PBE-1.0.upf
LATTICE_CONSTANT
20.000000  // add lattice constant(a.u.)
LATTICE_VECTORS
1.00000000 0.00000000 0.00000000
0.00000000 1.00000000 0.00000000
0.00000000 0.00000000 1.00000000
ATOMIC_POSITIONS
Cartesian_angstrom  //Cartesian or Direct coordinate.
Si      //Element Label
0.00     //starting magnetism
2       //number of atoms
0.00000000 0.00000000 0.00000000 0 0 0
0.00000000 0.00000000 1.82000000 0 0 0
