#This is the atom file containing all the information
#about the lattice structure.

ATOMIC_SPECIES
Si 1.000 Si_ONCV_PBE-1.0.upf

NUMERICAL_ORBITAL
Si_gga_10au_100Ry_31s31p30d.orb

LATTICE_CONSTANT
30.0  			#Lattice constant

LATTICE_VECTORS
1.0 0.0 0.0 #0.5 0.5 0.0 		#Lattice vector 1
0.0 1.0 0.0 #0.5 0.0 0.5 		#Lattice vector 2
0.0 0.0 1.0 #0.0 0.5 0.5 		#Lattice vector 3

ATOMIC_POSITIONS
Cartesian_au #Cartesian(Unit is LATTICE_CONSTANT)
Si 			#Name of element	
0.0			#Magnetic for this element.
2			#Number of atoms
0.00 0.00 0.00
0.00 0.00 6.00
