INPUT_PARAMETERS
suffix               Si-dimer-3.75-7au
stru_file            STRU-Si-dimer-3.75-7au
kpoint_file          KPT-Si-dimer-3.75-7au
wannier_card         INPUTw
pseudo_dir           /root/abacus-develop/pseudopotentials/sg15_oncv_upf_2020-02-06
calculation          scf
basis_type           lcao
ecutwfc              100
ks_solver            genelpa
nbands               8
scf_thr              1.0e-7
scf_nmax             9000
ntype                1
nspin                1
lmaxmax              2
bessel_nao_rcut      7
smearing_method      gauss
smearing_sigma       0.01
mixing_type          broyden
mixing_beta          0.8
mixing_ndim          8
mixing_gg0           0
gamma_only           1
printe               1
bessel_nao_smooth    0
orbital_dir          /root/documents/simulation/orbgen/ZSM5-TPA/Si/jy
out_mat_hs           1
out_mat_tk           1
out_wfc_lcao         1
out_chg              -1