INPUT_PARAMETERS
calculation scf
ecutwfc 40
symmetry 0
pseudo_dir .
nspin 1
printe 1
scf_nmax 200
lmaxmax 2
nbands 4
ks_solver dav
bessel_nao_rcut 7
bessel_nao_sigma 0.1
