INPUT_PARAMETERS
suffix               Si-trimer-1.9
stru_file            STRU-Si-trimer-1.9
kpoint_file          KPT-Si-trimer-1.9
pseudo_dir           /root/abacus-develop/pseudopotentials/SG15_ONCV_v1.0_upf
calculation          scf
basis_type           pw
ecutwfc              100
ks_solver            dav
nbands               10
scf_thr              1.0e-7
scf_nmax             9000
ntype                1
nspin                1
lmaxmax              2
bessel_nao_rcut      6 7
smearing_method      gauss
smearing_sigma       0.01
mixing_type          broyden
mixing_beta          0.8
mixing_ndim          8
mixing_gg0           1
printe               1