ATOMIC_SPECIES
Si 1.000000 Si_ONCV_PBE-1.0.upf

NUMERICAL_ORBITAL
jy_reduced_7au_100Ry_21s20p20d.orb

LATTICE_CONSTANT
25.000000  // add lattice constant(a.u.)

LATTICE_VECTORS
1.00000000 0.00000000 0.00000000
0.00000000 1.00000000 0.00000000
0.00000000 0.00000000 1.00000000

ATOMIC_POSITIONS
Cartesian_angstrom  //Cartesian or Direct coordinate.
Si      //Element Label
0.00     //starting magnetism
1       //number of atoms
0.00000000 0.00000000 0.00000000 0 0 0
