INPUT_PARAMETERS
suffix              Si-STRU2-6-2.6
stru_file           Si-STRU2-6-2.6.stru
pseudo_dir          /root/abacus-develop/pseudopotentials/SG15_ONCV_v1.0_upf
kpoint_file         KPOINTS
wannier_card        INPUTw
calculation         scf
ks_solver           dav  //#cg; dav; lapack; genelpa; hpseps; scalapack_gvx; cusolver 
ntype               1
nspin               1
lmaxmax             2
bessel_nao_rcut     6

symmetry            0
nbands             	10

ecutwfc             100
scf_thr             1.0e-7  // about iteration
scf_nmax            9000

smearing_method     gauss
smearing_sigma      0.01

mixing_type         pulay       // about charge mixing
mixing_beta         0.4
mixing_ndim         8
printe              1
